\ This file has been generated by DOcplex
\ ENCODING=ISO-8859-1
\Problem name: dectiger problem

Minimize
 obj: V
Subject To
 c1: V + 1.939597315436 a1_u0_x0 + 97.949664429530 a1_u1_x0
     - 8.728187919463 a1_u2_x0 + 0.060402684564 a1_u0_x1
     - 0.271812080537 a1_u1_x1 + 3.050335570470 a1_u2_x1 >= 0
 c2: V + 97.949664429530 a1_u0_x0 + 48.489932885906 a1_u1_x0
     + 96.979865771812 a1_u2_x0 - 0.271812080537 a1_u0_x1
     - 0.604026845638 a1_u1_x1 + 3.020134228188 a1_u2_x1 >= 0
 c3: V - 8.728187919463 a1_u0_x0 + 96.979865771812 a1_u1_x0
     - 19.395973154362 a1_u2_x0 + 3.050335570470 a1_u0_x1
     + 3.020134228188 a1_u1_x1 + 1.510067114094 a1_u2_x1 >= 0
 c4: a1_u0_x0 + a1_u1_x0 + a1_u2_x0 = 1
 c5: a1_u0_x1 + a1_u1_x1 + a1_u2_x1 = 1

Bounds
       V Free
 0 <= a1_u0_x0 <= 1
 0 <= a1_u1_x0 <= 1
 0 <= a1_u2_x0 <= 1
 0 <= a1_u0_x1 <= 1
 0 <= a1_u1_x1 <= 1
 0 <= a1_u2_x1 <= 1

Binaries
 a1_u0_x0 a1_u1_x0 a1_u2_x0 a1_u0_x1 a1_u1_x1 a1_u2_x1
End
